<?xml version = "1.0" encoding="UTF-8" standalone="yes"?>
<CPLEXSolution version="1.2">
 <header
   problemName="IloCplex"
   solutionName="p0"
   solutionIndex="-1"
   objectiveValue="817773"
   solutionTypeValue="3"
   solutionTypeString="primal"
   solutionStatusValue="127"
   solutionStatusString="integer feasible solution"
   solutionMethodString="mip"
   primalFeasible="0"
   dualFeasible="0"
   writeLevel="3"/>
 <quality
   epInt="1.0000000000000001e-05"
   epRHS="9.9999999999999995e-07"
   maxIntInfeas="0"
   maxPrimalInfeas="0"
   maxX="1495"
   maxSlack="83"/>
 <variables>
  <variable name="x1" index="0" value="1495"/>
  <variable name="w0_1" index="2" value="1495"/>
  <variable name="w2_0" index="9" value="1495"/>
  <variable name="w2_3" index="12" value="1495"/>
  <variable name="w3_1" index="14" value="1495"/>
  <variable name="w4_1" index="18" value="1495"/>
  <variable name="w5_1" index="22" value="1495"/>
  <variable name="w6_0" index="25" value="1495"/>
  <variable name="w6_1" index="26" value="1495"/>
  <variable name="w7_0" index="29" value="1495"/>
  <variable name="w7_2" index="31" value="1495"/>
  <variable name="w8_1" index="34" value="1495"/>
  <variable name="w8_2" index="35" value="1495"/>
  <variable name="w9_0" index="37" value="1495"/>
  <variable name="w9_3" index="40" value="1495"/>
  <variable name="w10_1" index="42" value="1495"/>
  <variable name="w12_0" index="49" value="1495"/>
  <variable name="w12_2" index="51" value="1495"/>
  <variable name="w13_0" index="53" value="1495"/>
  <variable name="w13_2" index="55" value="1495"/>
  <variable name="w14_0" index="57" value="1495"/>
  <variable name="w14_1" index="58" value="1495"/>
  <variable name="w15_0" index="61" value="1495"/>
  <variable name="w15_3" index="64" value="1495"/>
  <variable name="w16_0" index="65" value="1495"/>
  <variable name="w17_3" index="72" value="1495"/>
  <variable name="w18_1" index="74" value="1495"/>
  <variable name="w19_2" index="79" value="1495"/>
  <variable name="w20_2" index="83" value="1495"/>
  <variable name="w21_0" index="85" value="1495"/>
  <variable name="w21_3" index="88" value="1495"/>
  <variable name="w22_2" index="91" value="1495"/>
  <variable name="w24_0" index="97" value="1495"/>
  <variable name="w24_1" index="98" value="1495"/>
  <variable name="w25_0" index="101" value="1495"/>
  <variable name="w25_2" index="103" value="1495"/>
  <variable name="w26_3" index="108" value="1495"/>
  <variable name="w27_1" index="110" value="1495"/>
  <variable name="w27_2" index="111" value="1495"/>
  <variable name="w28_0" index="113" value="1495"/>
  <variable name="w29_1" index="118" value="1495"/>
  <variable name="w29_2" index="119" value="1495"/>
  <variable name="w30_0" index="121" value="1495"/>
  <variable name="w30_1" index="122" value="1495"/>
  <variable name="w32_3" index="132" value="1495"/>
  <variable name="w33_0" index="133" value="1495"/>
  <variable name="w33_3" index="136" value="1495"/>
  <variable name="w34_1" index="138" value="1495"/>
  <variable name="w34_2" index="139" value="1495"/>
  <variable name="w35_0" index="141" value="1495"/>
  <variable name="w35_3" index="144" value="1495"/>
  <variable name="w37_1" index="150" value="1495"/>
  <variable name="w38_1" index="154" value="1495"/>
  <variable name="w38_2" index="155" value="1495"/>
  <variable name="w39_0" index="157" value="1495"/>
  <variable name="w40_0" index="161" value="1495"/>
  <variable name="w40_3" index="164" value="1495"/>
  <variable name="w41_0" index="165" value="1495"/>
  <variable name="w41_3" index="168" value="1495"/>
  <variable name="w42_1" index="170" value="1495"/>
  <variable name="w43_0" index="173" value="1495"/>
  <variable name="w43_2" index="175" value="1495"/>
  <variable name="w45_3" index="184" value="1495"/>
  <variable name="w46_3" index="188" value="1495"/>
  <variable name="w47_0" index="189" value="1495"/>
  <variable name="w48_0" index="193" value="1495"/>
  <variable name="w48_3" index="196" value="1495"/>
  <variable name="w49_0" index="197" value="1495"/>
  <variable name="w49_3" index="200" value="1495"/>
  <variable name="w50_3" index="204" value="1495"/>
  <variable name="w51_3" index="208" value="1495"/>
  <variable name="w52_3" index="212" value="1495"/>
  <variable name="w53_1" index="214" value="1495"/>
  <variable name="w53_2" index="215" value="1495"/>
  <variable name="w54_0" index="217" value="1495"/>
  <variable name="w54_2" index="219" value="1495"/>
  <variable name="w55_0" index="221" value="1495"/>
  <variable name="w55_1" index="222" value="1495"/>
  <variable name="w56_1" index="226" value="1495"/>
  <variable name="w56_2" index="227" value="1495"/>
  <variable name="w57_2" index="231" value="1495"/>
  <variable name="w58_1" index="234" value="1495"/>
  <variable name="w59_0" index="237" value="1495"/>
  <variable name="w59_2" index="239" value="1495"/>
  <variable name="w60_2" index="243" value="1495"/>
  <variable name="w61_2" index="247" value="1495"/>
  <variable name="w62_1" index="250" value="1495"/>
  <variable name="w64_0" index="257" value="1495"/>
  <variable name="w65_0" index="261" value="1495"/>
  <variable name="w66_0" index="265" value="1495"/>
  <variable name="w66_2" index="267" value="1495"/>
  <variable name="w67_0" index="269" value="1495"/>
  <variable name="w67_2" index="271" value="1495"/>
  <variable name="w69_0" index="277" value="1495"/>
  <variable name="w69_1" index="278" value="1495"/>
  <variable name="w69_2" index="279" value="1495"/>
  <variable name="w70_0" index="281" value="1495"/>
  <variable name="w70_1" index="282" value="1495"/>
  <variable name="w70_2" index="283" value="1495"/>
  <variable name="w71_0" index="285" value="1495"/>
  <variable name="w71_2" index="287" value="1495"/>
  <variable name="w72_0" index="289" value="1495"/>
  <variable name="w73_0" index="293" value="1495"/>
  <variable name="w73_1" index="294" value="1495"/>
  <variable name="w73_2" index="295" value="1495"/>
  <variable name="w74_0" index="297" value="1495"/>
  <variable name="w74_1" index="298" value="1495"/>
  <variable name="w75_2" index="303" value="1495"/>
  <variable name="w76_0" index="305" value="1495"/>
  <variable name="w76_2" index="307" value="1495"/>
  <variable name="w77_0" index="309" value="1495"/>
  <variable name="w77_1" index="310" value="1495"/>
  <variable name="w78_1" index="314" value="1495"/>
  <variable name="w78_2" index="315" value="1495"/>
  <variable name="w79_3" index="320" value="1495"/>
  <variable name="w81_0" index="325" value="1495"/>
  <variable name="w81_2" index="327" value="1495"/>
  <variable name="w83_1" index="334" value="1495"/>
  <variable name="w83_2" index="335" value="1495"/>
  <variable name="w84_0" index="337" value="1495"/>
  <variable name="w84_1" index="338" value="1495"/>
  <variable name="w85_1" index="342" value="1495"/>
  <variable name="w87_0" index="349" value="1495"/>
  <variable name="w87_1" index="350" value="1495"/>
  <variable name="w87_2" index="351" value="1495"/>
  <variable name="w88_0" index="353" value="1495"/>
  <variable name="w88_1" index="354" value="1495"/>
  <variable name="w89_3" index="360" value="1495"/>
  <variable name="w90_0" index="361" value="1495"/>
  <variable name="w90_1" index="362" value="1495"/>
  <variable name="w90_2" index="363" value="1495"/>
  <variable name="w91_2" index="367" value="1495"/>
  <variable name="w92_0" index="369" value="1495"/>
  <variable name="w92_1" index="370" value="1495"/>
  <variable name="w93_0" index="373" value="1495"/>
  <variable name="w93_1" index="374" value="1495"/>
  <variable name="w93_2" index="375" value="1495"/>
  <variable name="w94_0" index="377" value="1495"/>
  <variable name="w94_1" index="378" value="1495"/>
  <variable name="w94_2" index="379" value="1495"/>
  <variable name="w95_0" index="381" value="1495"/>
  <variable name="w95_2" index="383" value="1495"/>
  <variable name="w96_0" index="385" value="1495"/>
  <variable name="w96_2" index="387" value="1495"/>
  <variable name="w97_2" index="391" value="1495"/>
  <variable name="w98_0" index="393" value="1495"/>
  <variable name="w99_1" index="398" value="1495"/>
  <variable name="w99_2" index="399" value="1495"/>
  <variable name="x0_77" index="478" value="1"/>
  <variable name="x1_90" index="591" value="1"/>
  <variable name="x2_11" index="612" value="1"/>
  <variable name="x3_87" index="788" value="1"/>
  <variable name="x4_75" index="876" value="1"/>
  <variable name="x5_74" index="975" value="1"/>
  <variable name="x6_62" index="1063" value="1"/>
  <variable name="x7_47" index="1148" value="1"/>
  <variable name="x8_24" index="1225" value="1"/>
  <variable name="x9_4" index="1305" value="1"/>
  <variable name="x10_69" index="1470" value="1"/>
  <variable name="x11_97" index="1598" value="1"/>
  <variable name="x12_42" index="1643" value="1"/>
  <variable name="x13_43" index="1744" value="1"/>
  <variable name="x14_59" index="1860" value="1"/>
  <variable name="x15_8" index="1909" value="1"/>
  <variable name="x16_80" index="2081" value="1"/>
  <variable name="x17_16" index="2117" value="1"/>
  <variable name="x18_71" index="2272" value="1"/>
  <variable name="x19_50" index="2351" value="1"/>
  <variable name="x20_60" index="2461" value="1"/>
  <variable name="x21_2" index="2503" value="1"/>
  <variable name="x22_39" index="2640" value="1"/>
  <variable name="x23_84" index="2785" value="1"/>
  <variable name="x24_70" index="2871" value="1"/>
  <variable name="x25_45" index="2946" value="1"/>
  <variable name="x26_13" index="3014" value="1"/>
  <variable name="x27_32" index="3133" value="1"/>
  <variable name="x28_86" index="3287" value="1"/>
  <variable name="x29_41" index="3342" value="1"/>
  <variable name="x30_65" index="3466" value="1"/>
  <variable name="x31_95" index="3596" value="1"/>
  <variable name="x32_6" index="3607" value="1"/>
  <variable name="x33_1" index="3702" value="1"/>
  <variable name="x34_37" index="3838" value="1"/>
  <variable name="x35_0" index="3901" value="1"/>
  <variable name="x36_96" index="4097" value="1"/>
  <variable name="x37_78" index="4179" value="1"/>
  <variable name="x38_40" index="4241" value="1"/>
  <variable name="x39_85" index="4386" value="1"/>
  <variable name="x40_7" index="4408" value="1"/>
  <variable name="x41_3" index="4504" value="1"/>
  <variable name="x42_79" index="4680" value="1"/>
  <variable name="x43_48" index="4749" value="1"/>
  <variable name="x44_99" index="4900" value="1"/>
  <variable name="x45_19" index="4920" value="1"/>
  <variable name="x46_18" index="5019" value="1"/>
  <variable name="x47_89" index="5190" value="1"/>
  <variable name="x48_5" index="5206" value="1"/>
  <variable name="x49_12" index="5313" value="1"/>
  <variable name="x50_15" index="5416" value="1"/>
  <variable name="x51_17" index="5518" value="1"/>
  <variable name="x52_10" index="5611" value="1"/>
  <variable name="x53_28" index="5729" value="1"/>
  <variable name="x54_34" index="5835" value="1"/>
  <variable name="x55_58" index="5959" value="1"/>
  <variable name="x56_35" index="6036" value="1"/>
  <variable name="x57_57" index="6158" value="1"/>
  <variable name="x58_66" index="6267" value="1"/>
  <variable name="x59_54" index="6355" value="1"/>
  <variable name="x60_56" index="6457" value="1"/>
  <variable name="x61_52" index="6553" value="1"/>
  <variable name="x62_72" index="6673" value="1"/>
  <variable name="x63_93" index="6794" value="1"/>
  <variable name="x64_82" index="6883" value="1"/>
  <variable name="x65_83" index="6984" value="1"/>
  <variable name="x66_36" index="7037" value="1"/>
  <variable name="x67_33" index="7134" value="1"/>
  <variable name="x68_94" index="7295" value="1"/>
  <variable name="x69_20" index="7321" value="1"/>
  <variable name="x70_22" index="7423" value="1"/>
  <variable name="x71_44" index="7545" value="1"/>
  <variable name="x72_81" index="7682" value="1"/>
  <variable name="x73_27" index="7728" value="1"/>
  <variable name="x74_67" index="7868" value="1"/>
  <variable name="x75_61" index="7962" value="1"/>
  <variable name="x76_46" index="8047" value="1"/>
  <variable name="x77_73" index="8174" value="1"/>
  <variable name="x78_30" index="8231" value="1"/>
  <variable name="x79_9" index="8310" value="1"/>
  <variable name="x80_92" index="8493" value="1"/>
  <variable name="x81_51" index="8552" value="1"/>
  <variable name="x82_98" index="8699" value="1"/>
  <variable name="x83_29" index="8730" value="1"/>
  <variable name="x84_64" index="8865" value="1"/>
  <variable name="x85_76" index="8977" value="1"/>
  <variable name="x86_88" index="9089" value="1"/>
  <variable name="x87_21" index="9122" value="1"/>
  <variable name="x88_68" index="9269" value="1"/>
  <variable name="x89_14" index="9315" value="1"/>
  <variable name="x90_25" index="9426" value="1"/>
  <variable name="x91_53" index="9554" value="1"/>
  <variable name="x92_63" index="9664" value="1"/>
  <variable name="x93_26" index="9727" value="1"/>
  <variable name="x94_23" index="9824" value="1"/>
  <variable name="x95_55" index="9956" value="1"/>
  <variable name="x96_38" index="10039" value="1"/>
  <variable name="x97_49" index="10150" value="1"/>
  <variable name="x98_91" index="10292" value="1"/>
  <variable name="x99_31" index="10332" value="1"/>
  <variable name="v0_1" index="10402" value="1"/>
  <variable name="v2_0" index="10409" value="1"/>
  <variable name="v2_3" index="10412" value="1"/>
  <variable name="v3_1" index="10414" value="1"/>
  <variable name="v4_1" index="10418" value="1"/>
  <variable name="v5_1" index="10422" value="1"/>
  <variable name="v6_0" index="10425" value="1"/>
  <variable name="v6_1" index="10426" value="1"/>
  <variable name="v7_0" index="10429" value="1"/>
  <variable name="v7_2" index="10431" value="1"/>
  <variable name="v8_1" index="10434" value="1"/>
  <variable name="v8_2" index="10435" value="1"/>
  <variable name="v9_0" index="10437" value="1"/>
  <variable name="v9_3" index="10440" value="1"/>
  <variable name="v10_1" index="10442" value="1"/>
  <variable name="v12_0" index="10449" value="1"/>
  <variable name="v12_2" index="10451" value="1"/>
  <variable name="v13_0" index="10453" value="1"/>
  <variable name="v13_2" index="10455" value="1"/>
  <variable name="v14_0" index="10457" value="1"/>
  <variable name="v14_1" index="10458" value="1"/>
  <variable name="v15_0" index="10461" value="1"/>
  <variable name="v15_3" index="10464" value="1"/>
  <variable name="v16_0" index="10465" value="1"/>
  <variable name="v17_3" index="10472" value="1"/>
  <variable name="v18_1" index="10474" value="1"/>
  <variable name="v19_2" index="10479" value="1"/>
  <variable name="v20_2" index="10483" value="1"/>
  <variable name="v21_0" index="10485" value="1"/>
  <variable name="v21_3" index="10488" value="1"/>
  <variable name="v22_2" index="10491" value="1"/>
  <variable name="v24_0" index="10497" value="1"/>
  <variable name="v24_1" index="10498" value="1"/>
  <variable name="v25_0" index="10501" value="1"/>
  <variable name="v25_2" index="10503" value="1"/>
  <variable name="v26_3" index="10508" value="1"/>
  <variable name="v27_1" index="10510" value="1"/>
  <variable name="v27_2" index="10511" value="1"/>
  <variable name="v28_0" index="10513" value="1"/>
  <variable name="v29_1" index="10518" value="1"/>
  <variable name="v29_2" index="10519" value="1"/>
  <variable name="v30_0" index="10521" value="1"/>
  <variable name="v30_1" index="10522" value="1"/>
  <variable name="v32_3" index="10532" value="1"/>
  <variable name="v33_0" index="10533" value="1"/>
  <variable name="v33_3" index="10536" value="1"/>
  <variable name="v34_1" index="10538" value="1"/>
  <variable name="v34_2" index="10539" value="1"/>
  <variable name="v35_0" index="10541" value="1"/>
  <variable name="v35_3" index="10544" value="1"/>
  <variable name="v37_1" index="10550" value="1"/>
  <variable name="v38_1" index="10554" value="1"/>
  <variable name="v38_2" index="10555" value="1"/>
  <variable name="v39_0" index="10557" value="1"/>
  <variable name="v40_0" index="10561" value="1"/>
  <variable name="v40_3" index="10564" value="1"/>
  <variable name="v41_0" index="10565" value="1"/>
  <variable name="v41_3" index="10568" value="1"/>
  <variable name="v42_1" index="10570" value="1"/>
  <variable name="v43_0" index="10573" value="1"/>
  <variable name="v43_2" index="10575" value="1"/>
  <variable name="v45_3" index="10584" value="1"/>
  <variable name="v46_3" index="10588" value="1"/>
  <variable name="v47_0" index="10589" value="1"/>
  <variable name="v48_0" index="10593" value="1"/>
  <variable name="v48_3" index="10596" value="1"/>
  <variable name="v49_0" index="10597" value="1"/>
  <variable name="v49_3" index="10600" value="1"/>
  <variable name="v50_3" index="10604" value="1"/>
  <variable name="v51_3" index="10608" value="1"/>
  <variable name="v52_3" index="10612" value="1"/>
  <variable name="v53_1" index="10614" value="1"/>
  <variable name="v53_2" index="10615" value="1"/>
  <variable name="v54_0" index="10617" value="1"/>
  <variable name="v54_2" index="10619" value="1"/>
  <variable name="v55_0" index="10621" value="1"/>
  <variable name="v55_1" index="10622" value="1"/>
  <variable name="v56_1" index="10626" value="1"/>
  <variable name="v56_2" index="10627" value="1"/>
  <variable name="v57_2" index="10631" value="1"/>
  <variable name="v58_1" index="10634" value="1"/>
  <variable name="v59_0" index="10637" value="1"/>
  <variable name="v59_2" index="10639" value="1"/>
  <variable name="v60_2" index="10643" value="1"/>
  <variable name="v61_2" index="10647" value="1"/>
  <variable name="v62_1" index="10650" value="1"/>
  <variable name="v64_0" index="10657" value="1"/>
  <variable name="v65_0" index="10661" value="1"/>
  <variable name="v66_0" index="10665" value="1"/>
  <variable name="v66_2" index="10667" value="1"/>
  <variable name="v67_0" index="10669" value="1"/>
  <variable name="v67_2" index="10671" value="1"/>
  <variable name="v69_0" index="10677" value="1"/>
  <variable name="v69_1" index="10678" value="1"/>
  <variable name="v69_2" index="10679" value="1"/>
  <variable name="v70_0" index="10681" value="1"/>
  <variable name="v70_1" index="10682" value="1"/>
  <variable name="v70_2" index="10683" value="1"/>
  <variable name="v71_0" index="10685" value="1"/>
  <variable name="v71_2" index="10687" value="1"/>
  <variable name="v72_0" index="10689" value="1"/>
  <variable name="v73_0" index="10693" value="1"/>
  <variable name="v73_1" index="10694" value="1"/>
  <variable name="v73_2" index="10695" value="1"/>
  <variable name="v74_0" index="10697" value="1"/>
  <variable name="v74_1" index="10698" value="1"/>
  <variable name="v75_2" index="10703" value="1"/>
  <variable name="v76_0" index="10705" value="1"/>
  <variable name="v76_2" index="10707" value="1"/>
  <variable name="v77_0" index="10709" value="1"/>
  <variable name="v77_1" index="10710" value="1"/>
  <variable name="v78_1" index="10714" value="1"/>
  <variable name="v78_2" index="10715" value="1"/>
  <variable name="v79_3" index="10720" value="1"/>
  <variable name="v81_0" index="10725" value="1"/>
  <variable name="v81_2" index="10727" value="1"/>
  <variable name="v83_1" index="10734" value="1"/>
  <variable name="v83_2" index="10735" value="1"/>
  <variable name="v84_0" index="10737" value="1"/>
  <variable name="v84_1" index="10738" value="1"/>
  <variable name="v85_1" index="10742" value="1"/>
  <variable name="v87_0" index="10749" value="1"/>
  <variable name="v87_1" index="10750" value="1"/>
  <variable name="v87_2" index="10751" value="1"/>
  <variable name="v88_0" index="10753" value="1"/>
  <variable name="v88_1" index="10754" value="1"/>
  <variable name="v89_3" index="10760" value="1"/>
  <variable name="v90_0" index="10761" value="1"/>
  <variable name="v90_1" index="10762" value="1"/>
  <variable name="v90_2" index="10763" value="1"/>
  <variable name="v91_2" index="10767" value="1"/>
  <variable name="v92_0" index="10769" value="1"/>
  <variable name="v92_1" index="10770" value="1"/>
  <variable name="v93_0" index="10773" value="1"/>
  <variable name="v93_1" index="10774" value="1"/>
  <variable name="v93_2" index="10775" value="1"/>
  <variable name="v94_0" index="10777" value="1"/>
  <variable name="v94_1" index="10778" value="1"/>
  <variable name="v94_2" index="10779" value="1"/>
  <variable name="v95_0" index="10781" value="1"/>
  <variable name="v95_2" index="10783" value="1"/>
  <variable name="v96_0" index="10785" value="1"/>
  <variable name="v96_2" index="10787" value="1"/>
  <variable name="v97_2" index="10791" value="1"/>
  <variable name="v98_0" index="10793" value="1"/>
  <variable name="v99_1" index="10798" value="1"/>
  <variable name="v99_2" index="10799" value="1"/>
 </variables>
</CPLEXSolution>
